cases/matpower/case24.m
ipopt
[info | PowerModels]: extending matpower format with data: areas 4x3
[warn | PowerModels]: angmin and angmax values are 0, widening these values on branch 38 to +/- 60.0 deg.
[warn | PowerModels]: reversing the orientation of branch 37 (23, 20) to be consistent with other parallel branches
[info | PowerModels]: removing 1 cost terms from generator 1: [13000.0, 400.6849]
[info | PowerModels]: removing 1 cost terms from generator 29: [0.1, 0.001]
[info | PowerModels]: removing 1 cost terms from generator 2: [13000.0, 400.6849]
[info | PowerModels]: removing 1 cost terms from generator 6: [13000.0, 400.6849]
[info | PowerModels]: removing 1 cost terms from generator 25: [0.1, 0.001]
[info | PowerModels]: removing 1 cost terms from generator 5: [13000.0, 400.6849]
[info | PowerModels]: removing 3 cost terms from generator 15: Float64[]
[info | PowerModels]: removing 1 cost terms from generator 27: [0.1, 0.001]
[info | PowerModels]: removing 1 cost terms from generator 28: [0.1, 0.001]
[info | PowerModels]: removing 1 cost terms from generator 26: [0.1, 0.001]
[info | PowerModels]: removing 1 cost terms from generator 30: [0.1, 0.001]

******************************************************************************
This program contains Ipopt, a library for large-scale nonlinear optimization.
 Ipopt is released as open source code under the Eclipse Public License (EPL).
         For more information visit http://projects.coin-or.org/Ipopt
******************************************************************************

This is Ipopt version 3.13.2, running with linear solver mumps.
NOTE: Other linear solvers might be more efficient (see Ipopt documentation).

Number of nonzeros in equality constraint Jacobian...:      979
Number of nonzeros in inequality constraint Jacobian.:      288
Number of nonzeros in Lagrangian Hessian.............:     1695

Total number of variables............................:      265
                     variables with only lower bounds:        0
                variables with lower and upper bounds:      241
                     variables with only upper bounds:        0
Total number of equality constraints.................:      201
Total number of inequality constraints...............:      144
        inequality constraints with only lower bounds:       34
   inequality constraints with lower and upper bounds:        0
        inequality constraints with only upper bounds:      110

iter    objective    inf_pr   inf_du lg(mu)  ||d||  lg(rg) alpha_du alpha_pr  ls
   0  4.0097983e+04 2.52e+00 4.56e+01  -1.0 0.00e+00    -  0.00e+00 0.00e+00   0
   1  5.6177848e+04 1.56e+00 6.27e+01  -1.0 2.38e+00    -  1.00e-02 3.79e-01h  1
   2  5.3222442e+04 1.35e+00 5.43e+01  -1.0 6.38e+00    -  1.34e-02 1.39e-01f  1
   3  5.2257260e+04 1.33e+00 5.02e+01  -1.0 8.79e+00    -  3.45e-01 1.34e-02f  1
   4  5.3272287e+04 1.06e+00 3.71e+01  -1.0 7.52e+00    -  7.34e-01 2.05e-01h  1
   5  5.3482341e+04 1.01e+00 2.89e+02  -1.0 8.94e+00    -  8.11e-01 4.24e-02h  1
   6  5.5429401e+04 7.72e-01 4.05e+02  -1.0 9.34e+00    -  4.76e-01 2.37e-01h  1
   7  5.6538243e+04 6.61e-01 5.92e+02  -1.0 1.30e+01    -  6.52e-01 1.44e-01h  1
   8  6.0925866e+04 5.13e-01 4.67e+02  -1.0 2.48e+00    -  2.05e-01 2.24e-01h  1
   9  6.4150221e+04 3.94e-01 3.53e+02  -1.0 3.78e+00    -  4.65e-01 2.33e-01h  1
iter    objective    inf_pr   inf_du lg(mu)  ||d||  lg(rg) alpha_du alpha_pr  ls
  10  6.6934943e+04 3.09e-01 7.25e+02  -1.0 2.68e+00    -  9.90e-01 2.14e-01h  1
  11  7.3379787e+04 1.41e-01 1.83e+02  -1.0 2.07e+00    -  2.79e-01 5.46e-01h  1
  12  7.6739519e+04 5.82e-02 1.25e+02  -1.0 2.10e+00    -  1.00e+00 5.86e-01h  1
  13  7.6819094e+04 5.61e-02 1.27e+03  -1.0 7.57e-01    -  8.16e-01 3.67e-02h  1
  14  7.8144570e+04 3.39e-02 3.97e+02  -1.0 5.19e-01    -  1.00e+00 3.96e-01h  1
  15  7.8670414e+04 2.06e-02 1.44e+02  -1.0 3.28e-01    -  3.52e-01 3.93e-01h  1
  16  7.9162932e+04 1.31e-02 3.80e+02  -1.0 1.43e-01    -  1.00e+00 3.63e-01h  1
  17  7.9438564e+04 8.51e-03 3.80e+02  -1.0 1.59e+00    -  4.02e-01 3.51e-01h  1
  18  7.9706668e+04 5.00e-03 1.37e+03  -1.0 1.69e+00    -  1.00e+00 4.12e-01h  1
  19  7.9771786e+04 2.51e-03 1.09e+03  -1.0 2.92e-01    -  5.85e-01 5.22e-01h  1
iter    objective    inf_pr   inf_du lg(mu)  ||d||  lg(rg) alpha_du alpha_pr  ls
  20  8.0376707e+04 3.13e-04 4.81e-01  -1.0 1.50e-01    -  1.00e+00 1.00e+00h  1
  21  7.9999403e+04 1.76e-04 8.85e+01  -1.7 1.73e-01    -  9.62e-01 7.66e-01f  1
  22  7.9892847e+04 6.67e-05 7.50e-01  -1.7 5.81e-02    -  1.00e+00 1.00e+00f  1
  23  7.9901407e+04 9.98e-08 1.01e-02  -1.7 5.29e-03    -  1.00e+00 1.00e+00h  1
  24  7.9820710e+04 7.87e-05 3.27e+00  -3.8 5.31e-02    -  8.75e-01 8.13e-01f  1
  25  7.9805379e+04 3.12e-05 1.10e-01  -3.8 5.25e-02    -  9.73e-01 9.72e-01f  1
  26  7.9805598e+04 2.27e-06 1.62e-03  -3.8 1.87e-02    -  1.00e+00 1.00e+00h  1
  27  7.9805629e+04 3.89e-08 1.30e-05  -3.8 2.45e-03    -  1.00e+00 1.00e+00h  1
  28  7.9804970e+04 6.21e-08 6.66e-05  -5.7 2.63e-03    -  1.00e+00 1.00e+00f  1
  29  7.9804971e+04 4.35e-11 1.93e-08  -5.7 2.92e-04    -  1.00e+00 1.00e+00h  1
iter    objective    inf_pr   inf_du lg(mu)  ||d||  lg(rg) alpha_du alpha_pr  ls
  30  7.9804963e+04 1.03e-11 1.04e-08  -8.6 3.41e-05    -  1.00e+00 1.00e+00h  1
  31  7.9804963e+04 4.35e-14 3.88e-12  -9.0 1.21e-04    -  1.00e+00 1.00e+00h  1

Number of Iterations....: 31

                                   (scaled)                 (unscaled)
Objective...............:   6.1388433312037364e+02    7.9804963305648562e+04
Dual infeasibility......:   3.8757294031354157e-12    5.0384482240760405e-10
Constraint violation....:   4.3520742565306136e-14    4.3520742565306136e-14
Complementarity.........:   9.1692715809612328e-10    1.1920053055249602e-07
Overall NLP error.......:   9.1692715809612328e-10    1.1920053055249602e-07


Number of objective function evaluations             = 32
Number of objective gradient evaluations             = 32
Number of equality constraint evaluations            = 32
Number of inequality constraint evaluations          = 32
Number of equality constraint Jacobian evaluations   = 32
Number of inequality constraint Jacobian evaluations = 32
Number of Lagrangian Hessian evaluations             = 31
Total CPU secs in IPOPT (w/o function evaluations)   =      1.334
Total CPU secs in NLP function evaluations           =      2.304

EXIT: Optimal Solution Found.
Time to Solution........:4.373669862747192
